(set-logic ALL)
(set-option :produce-models true)
(declare-sort BoundSet 0)
(declare-sort UnboundSet 0)
(declare-fun IsInBlueSoccerUniforms (BoundSet) Bool)
(declare-fun UsesWoodenSetOfSteps (BoundSet) Bool)
(declare-fun WashesHands (BoundSet) Bool)
(declare-fun IsInAdultSizedBathroom (BoundSet) Bool)
(assert (not (=> (exists ((b BoundSet)) (and (IsInBlueSoccerUniforms b) (and (UsesWoodenSetOfSteps b) (and (WashesHands b) (IsInAdultSizedBathroom b))))) (exists ((f BoundSet)) (WashesHands f)))))
(check-sat)
(get-model)